# Solution for model Objective
# Objective value = 10
M 6
W7 0
W10 0
W13 0
W14 0
W16 0
W20 0
W21 0
W22 0
W24 0
W25 0
W29 0
W30 0
W31 0
W32 0
W33 0
W34 1
W35 1
W36 1
W40 0
W41 0
W42 1
W43 0
W0 6
W1 6
W2 6
W3 6
W4 6
W5 6
W6 6
W8 5
W9 6
W11 6
W12 6
W15 2
W17 0
W18 6
W19 6
W23 0
W26 3
W27 3
W28 2
W37 6
W38 5
W39 2
d0_1 0
d0_2 1
d0_3 0
d0_4 0
d0_5 0
d0_6 0
d0_7 0
d0_8 0
d0_9 0
d0_0 0
d1_1 0
d1_2 0
d1_3 0
d1_4 0
d1_5 1
d1_6 0
d1_7 0
d1_8 0
d1_9 0
d1_0 0
d2_1 0
d2_2 0
d2_3 0
d2_4 0
d2_5 0
d2_6 0
d2_7 1
d2_8 0
d2_9 0
d2_0 0
d3_1 0
d3_2 0
d3_3 0
d3_4 0
d3_5 0
d3_6 1
d3_7 0
d3_8 0
d3_9 0
d3_0 0
d4_1 0
d4_2 0
d4_3 1
d4_4 0
d4_5 0
d4_6 0
d4_7 0
d4_8 0
d4_9 0
d4_0 0
d5_1 0
d5_2 0
d5_3 0
d5_4 1
d5_5 0
d5_6 0
d5_7 0
d5_8 0
d5_9 0
d5_0 0
d6_1 1
d6_2 0
d6_3 0
d6_4 0
d6_5 0
d6_6 0
d6_7 0
d6_8 0
d6_9 0
d6_0 0
